n_res = 4;
rc = [ 12, 12, 11, 14 ];
n_tasks = 60;
d = [ 3, 2, 8, 7, 2, 9, 4, 10, 4, 9, 2, 2, 1, 3, 5, 4, 7, 9, 4, 4, 6, 4, 4, 10, 6, 5, 10, 9, 6, 10, 9, 7, 10, 3, 4, 2, 6, 3, 8, 2, 9, 9, 6, 3, 4, 2, 8, 9, 10, 6, 7, 10, 8, 5, 7, 10, 6, 2, 10, 10 ];
rr = [| 2, 0, 1, 0, 0, 0, 0, 0, 0, 0, 0, 0, 0, 0, 10, 0, 0, 0, 0, 0, 0, 0, 9, 0, 1, 0, 0, 0, 6, 0, 10, 5, 0, 0, 0, 4, 0, 2, 1, 0, 0, 0, 0, 0, 0, 0, 0, 0, 7, 0, 0, 0, 2, 7, 0, 1, 0, 10, 9, 0
      | 0, 0, 0, 0, 0, 0, 5, 0, 0, 0, 0, 0, 0, 0, 0, 0, 0, 2, 3, 3, 0, 0, 0, 0, 0, 0, 0, 8, 0, 0, 0, 0, 0, 10, 3, 0, 4, 0, 0, 1, 9, 0, 4, 4, 0, 7, 0, 1, 0, 6, 3, 0, 0, 0, 0, 0, 0, 0, 0, 0
      | 0, 8, 0, 0, 0, 0, 0, 0, 0, 0, 0, 3, 1, 10, 0, 6, 0, 0, 0, 0, 0, 0, 0, 0, 0, 0, 6, 0, 0, 0, 0, 0, 6, 0, 0, 0, 0, 0, 0, 0, 0, 0, 0, 0, 10, 0, 0, 0, 0, 0, 0, 0, 0, 0, 6, 0, 7, 0, 0, 0
      | 0, 0, 0, 9, 8, 4, 0, 6, 3, 4, 2, 0, 0, 0, 0, 0, 3, 0, 0, 0, 3, 7, 0, 1, 0, 10, 0, 0, 0, 8, 0, 0, 0, 0, 0, 0, 0, 0, 0, 0, 0, 5, 0, 0, 0, 0, 3, 0, 0, 0, 0, 10, 0, 0, 0, 0, 0, 0, 0, 5 |];
suc = [ { 4, 8, 17 },
       { 5, 6, 13 },
       { 7, 28, 51 },
       { 20, 31, 32 },
       { 21, 24 },
       { 10, 27, 47 },
       { 45, 53 },
       { 9, 15, 18 },
       { 11, 12, 34 },
       { 32, 36, 54 },
       { 47, 56 },
       { 39, 46 },
       { 14, 19 },
       { 16, 29 },
       { 25, 31, 38 },
       { 20, 28, 55 },
       { 23 },
       { 39 },
       { 33 },
       { 22, 23, 26 },
       { 33, 40, 52 },
       { 38 },
       { 48, 57 },
       { 30 },
       { 32, 33 },
       { 42 },
       { 56 },
       { 34, 42 },
       { 41, 50 },
       { 52 },
       { 40, 44, 45 },
       { 35, 49 },
       { 48, 55 },
       { 43, 57 },
       { 40 },
       { 37, 38, 41 },
       { 39, 49 },
       { 44, 45 },
       { 53 },
       { 48, 50 },
       { 44 },
       { 43, 52 },
       { 54 },
       { 51, 59 },
       { 46 },
       { 49 },
       { 53, 59 },
       { 51, 60 },
       { 50, 58 },
       { 60 },
       { 56 },
       { 60 },
       { 55 },
       { 59 },
       { 57 },
       { 58 },
       { 58 },
       {  },
       {  },
       {  } ];
